%BLOCK LATTICE_CART
ang    # angstrom units
  67.959999100000    0.000000000000     0.000000000000   
  0.000000000000     67.959999100000    0.000000000000   
  0.000000000000     0.000000000000     67.959999100000  
%ENDBLOCK LATTICE_CART

%BLOCK POSITIONS_FRAC
Zn     0.366127000000     0.528854400000     0.414314300000   
Zn     0.491127000000     0.403854400000     0.289299000000   
Zn     0.366775500000     0.279548600000     0.289245600000   
Zn     0.491775500000     0.404563900000     0.414260900000   
Zn     0.429077100000     0.403770400000     0.226501500000   
Zn     0.366272000000     0.341659500000     0.226356500000   
Zn     0.304016100000     0.404411300000     0.227150000000   
Zn     0.366920500000     0.466659500000     0.227043200000   
Zn     0.491272000000     0.466713000000     0.351356500000   
Zn     0.491935700000     0.341659500000     0.352058400000   
Zn     0.304016100000     0.528770400000     0.351516700000   
Zn     0.429016100000     0.529457100000     0.352165200000   
Zn     0.616127000000     0.778884900000     0.664329500000   
Zn     0.741142300000     0.653869600000     0.539314300000   
Zn     0.616775500000     0.529563900000     0.539276100000   
Zn     0.741790800000     0.654579200000     0.664276100000   
Zn     0.679092400000     0.653770400000     0.476516700000   
Zn     0.616272000000     0.591674800000     0.476356500000   
Zn     0.554031400000     0.654411300000     0.477165200000   
Zn     0.616935700000     0.716674800000     0.477058400000   
Zn     0.741287200000     0.716713000000     0.601371800000   
Zn     0.741935700000     0.591674800000     0.602073700000   
Zn     0.554031400000     0.778778100000     0.601516700000   
Zn     0.679046600000     0.779472400000     0.602165200000   
Zn     0.366127000000     0.778884900000     0.664329500000   
Zn     0.491127000000     0.653869600000     0.539314300000   
Zn     0.366775500000     0.529563900000     0.539276100000   
Zn     0.491775500000     0.654579200000     0.664276100000   
Zn     0.429077100000     0.653770400000     0.476516700000   
Zn     0.366272000000     0.591674800000     0.476356500000   
Zn     0.304016100000     0.654411300000     0.477165200000   
Zn     0.366920500000     0.716674800000     0.477058400000   
Zn     0.491272000000     0.716713000000     0.601371800000   
Zn     0.491935700000     0.591674800000     0.602073700000   
Zn     0.304016100000     0.778778100000     0.601516700000   
Zn     0.429016100000     0.779472400000     0.602165200000   
Zn     0.616127000000     0.528854400000     0.664329500000   
Zn     0.741142300000     0.403854400000     0.539314300000   
Zn     0.616775500000     0.779579200000     0.539276100000   
Zn     0.741790800000     0.404563900000     0.664276100000   
Zn     0.679092400000     0.403770400000     0.476516700000   
Zn     0.616272000000     0.341659500000     0.476356500000   
Zn     0.554031400000     0.404411300000     0.477165200000   
Zn     0.616935700000     0.466659500000     0.477058400000   
Zn     0.741287200000     0.466713000000     0.601371800000   
Zn     0.741935700000     0.341659500000     0.602073700000   
Zn     0.554031400000     0.528770400000     0.601516700000   
Zn     0.679046600000     0.529457100000     0.602165200000   
Zn     0.366127000000     0.528854400000     0.664329500000   
Zn     0.491127000000     0.403854400000     0.539314300000   
Zn     0.366775500000     0.779579200000     0.539276100000   
Zn     0.491775500000     0.404563900000     0.664276100000   
Zn     0.429077100000     0.403770400000     0.476516700000   
Zn     0.366272000000     0.341659500000     0.476356500000   
Zn     0.304016100000     0.404411300000     0.477165200000   
Zn     0.366920500000     0.466659500000     0.477058400000   
Zn     0.491272000000     0.466713000000     0.601371800000   
Zn     0.491935700000     0.341659500000     0.602073700000   
Zn     0.304016100000     0.528770400000     0.601516700000   
Zn     0.429016100000     0.529457100000     0.602165200000   
Zn     0.616127000000     0.778884900000     0.414314300000   
Zn     0.741142300000     0.653869600000     0.289299000000   
Zn     0.616775500000     0.529563900000     0.289245600000   
Zn     0.741790800000     0.654579200000     0.414260900000   
Zn     0.679092400000     0.653770400000     0.226501500000   
Zn     0.616272000000     0.591674800000     0.226356500000   
Zn     0.554031400000     0.654411300000     0.227150000000   
Zn     0.616935700000     0.716674800000     0.227043200000   
Zn     0.741287200000     0.716713000000     0.351356500000   
Zn     0.741935700000     0.591674800000     0.352058400000   
Zn     0.554031400000     0.778778100000     0.351516700000   
Zn     0.679046600000     0.779472400000     0.352165200000   
Zn     0.366127000000     0.778884900000     0.414314300000   
Zn     0.491127000000     0.653869600000     0.289299000000   
Zn     0.366775500000     0.529563900000     0.289245600000   
Zn     0.491775500000     0.654579200000     0.414260900000   
Zn     0.429077100000     0.653770400000     0.226501500000   
Zn     0.366272000000     0.591674800000     0.226356500000   
Zn     0.304016100000     0.654411300000     0.227150000000   
Zn     0.366920500000     0.716674800000     0.227043200000   
Zn     0.491272000000     0.716713000000     0.351356500000   
Zn     0.491935700000     0.591674800000     0.352058400000   
Zn     0.304016100000     0.778778100000     0.351516700000   
Zn     0.429016100000     0.779472400000     0.352165200000   
Zn     0.616127000000     0.528854400000     0.414314300000   
Zn     0.741142300000     0.403854400000     0.289299000000   
Zn     0.616775500000     0.279548600000     0.289245600000   
Zn     0.741790800000     0.404563900000     0.414260900000   
Zn     0.679092400000     0.403770400000     0.226501500000   
Zn     0.616272000000     0.341659500000     0.226356500000   
Zn     0.554031400000     0.404411300000     0.227150000000   
Zn     0.616935700000     0.466659500000     0.227043200000   
Zn     0.741287200000     0.466713000000     0.351356500000   
Zn     0.741935700000     0.341659500000     0.352058400000   
Zn     0.554031400000     0.528770400000     0.351516700000   
Zn     0.679046600000     0.529457100000     0.352165200000   
H      0.373512300000     0.506462100000     0.378013600000   
H      0.397514300000     0.496261600000     0.380607600000   
H      0.390716600000     0.507919300000     0.358207700000   
H      0.470779400000     0.397407500000     0.329750100000   
H      0.458816500000     0.376792900000     0.319145200000   
H      0.467567400000     0.375457800000     0.343864400000   
H      0.372116100000     0.299102800000     0.330001800000   
H      0.392822300000     0.312194800000     0.320999100000   
H      0.393364000000     0.302101100000     0.345199600000   
H      0.359916700000     0.382255600000     0.456108100000   
H      0.339271500000     0.371749900000     0.444053600000   
H      0.337966900000     0.396408100000     0.452957200000   
H      0.372924800000     0.428108200000     0.455665600000   
H      0.395172100000     0.435356100000     0.443969700000   
H      0.393028300000     0.411254900000     0.453910800000   
H      0.375114400000     0.375251800000     0.250793500000   
H      0.399971000000     0.375351000000     0.259094200000   
H      0.389923100000     0.396804800000     0.248146100000   
H      0.359916700000     0.430999800000     0.249702500000   
H      0.335723900000     0.430503800000     0.259796100000   
H      0.344718900000     0.409759500000     0.246704100000   
H      0.262901300000     0.427604700000     0.344467200000   
H      0.273864700000     0.437568700000     0.322914100000   
H      0.265510600000     0.412712100000     0.322914100000   
H      0.344528200000     0.508461000000     0.345115700000   
H      0.334022500000     0.496452300000     0.324409500000   
H      0.358665500000     0.505310100000     0.323158300000   
H      0.468673700000     0.430664100000     0.358810400000   
H      0.458663900000     0.432754500000     0.382919300000   
H      0.470420800000     0.410568200000     0.375709500000   
H      0.337669400000     0.303146400000     0.360313400000   
H      0.337669400000     0.311508200000     0.385208100000   
H      0.359169000000     0.300605800000     0.375267000000   
H      0.484169000000     0.425605800000     0.250251800000   
H      0.462623600000     0.436508200000     0.260200500000   
H      0.462669400000     0.428161600000     0.235343900000   
H      0.248451200000     0.381561300000     0.252899200000   
H      0.272369400000     0.371246300000     0.255798300000   
H      0.265861500000     0.382812500000     0.233253500000   
H      0.345779400000     0.522453300000     0.454811100000   
H      0.333816500000     0.501808200000     0.444213900000   
H      0.342613200000     0.500518800000     0.468910200000   
H      0.483726500000     0.380355800000     0.448204000000   
H      0.459060700000     0.371452300000     0.449409500000   
H      0.469467200000     0.383461000000     0.470115700000   
H      0.484870900000     0.507255600000     0.331108100000   
H      0.464271500000     0.496704100000     0.319053600000   
H      0.462921100000     0.521362300000     0.327957200000   
H      0.247909500000     0.303108200000     0.330665600000   
H      0.270111100000     0.310401900000     0.318893400000   
H      0.268051100000     0.286254900000     0.328910800000   
H      0.250061000000     0.500267000000     0.375808700000   
H      0.274955700000     0.500351000000     0.384170500000   
H      0.264907800000     0.521804800000     0.373161300000   
H      0.484916700000     0.305999800000     0.374702500000   
H      0.460723900000     0.305503800000     0.384811400000   
H      0.469718900000     0.284759500000     0.371704100000   
H      0.387916600000     0.302604700000     0.469467200000   
H      0.398925800000     0.312553400000     0.447952300000   
H      0.390525800000     0.287696800000     0.447914100000   
H      0.386474600000     0.507415800000     0.232360800000   
H      0.399513200000     0.498367300000     0.253044100000   
H      0.389465300000     0.522560100000     0.253692600000   
H      0.343673700000     0.305694600000     0.233840900000   
H      0.333663900000     0.307693500000     0.257942200000   
H      0.345420800000     0.285507200000     0.250648500000   
H      0.268302900000     0.427063000000     0.470199600000   
H      0.267807000000     0.437210100000     0.446014400000   
H      0.247116100000     0.424118000000     0.455001800000   
H      0.623527500000     0.756477400000     0.628013600000   
H      0.647529600000     0.746276900000     0.630622900000   
H      0.640731800000     0.757934600000     0.608223000000   
H      0.720794700000     0.647422800000     0.579765300000   
H      0.708847000000     0.626823400000     0.569175700000   
H      0.717582700000     0.625473000000     0.593864400000   
H      0.622131300000     0.549118000000     0.580017100000   
H      0.642837500000     0.562210100000     0.571029700000   
H      0.643379200000     0.552116400000     0.595214800000   
H      0.514526400000     0.647575400000     0.628723100000   
H      0.524574300000     0.623321500000     0.628074600000   
H      0.511436500000     0.632415800000     0.607414200000   
H      0.609931900000     0.632270800000     0.706138600000   
H      0.589271500000     0.621765100000     0.694084200000   
H      0.587974500000     0.646423300000     0.702987700000   
H      0.622924800000     0.678115800000     0.705680800000   
H      0.645172100000     0.685371400000     0.693985000000   
H      0.643028300000     0.661270100000     0.703926100000   
H      0.625129700000     0.625267000000     0.500824000000   
H      0.649986300000     0.625366200000     0.509124800000   
H      0.639938400000     0.646820100000     0.498176600000   
H      0.609931900000     0.681015000000     0.499717700000   
H      0.585723900000     0.680519100000     0.509811400000   
H      0.594734200000     0.659767200000     0.496719400000   
H      0.512931800000     0.677619900000     0.594467200000   
H      0.523880000000     0.687568700000     0.572921800000   
H      0.515525800000     0.662712100000     0.572921800000   
H      0.594528200000     0.758476300000     0.595115700000   
H      0.584037800000     0.746482800000     0.574424700000   
H      0.608680700000     0.755325300000     0.573173500000   
H      0.718689000000     0.680664100000     0.608810400000   
H      0.708694500000     0.682769800000     0.632919300000   
H      0.720436100000     0.660568200000     0.625717200000   
H      0.587684600000     0.553161600000     0.610313400000   
H      0.587684600000     0.561523400000     0.635223400000   
H      0.609184300000     0.550621000000     0.625267000000   
H      0.734199500000     0.675621000000     0.500267000000   
H      0.712638900000     0.686523400000     0.510223400000   
H      0.712684600000     0.678161600000     0.485359200000   
H      0.498481800000     0.631561300000     0.502914400000   
H      0.522384600000     0.621276900000     0.505828900000   
H      0.515876800000     0.632812500000     0.483253500000   
H      0.595779400000     0.772483800000     0.704826400000   
H      0.583831800000     0.751823400000     0.694229100000   
H      0.592628500000     0.750526400000     0.718925500000   
H      0.733741800000     0.630371100000     0.698234600000   
H      0.709091200000     0.621467600000     0.699424700000   
H      0.719497700000     0.633476300000     0.720130900000   
H      0.734886200000     0.757286100000     0.581123400000   
H      0.714286800000     0.746734600000     0.569068900000   
H      0.712936400000     0.771377600000     0.577972400000   
H      0.497924800000     0.553115800000     0.580665600000   
H      0.520126300000     0.560417200000     0.568924000000   
H      0.518081700000     0.536254900000     0.578910800000   
H      0.500076300000     0.750282300000     0.625824000000   
H      0.524986300000     0.750381500000     0.634170500000   
H      0.514938400000     0.771835300000     0.623176600000   
H      0.734947200000     0.556015000000     0.624717700000   
H      0.710739100000     0.555519100000     0.634811400000   
H      0.719749500000     0.534759500000     0.621719400000   
H      0.637931800000     0.552619900000     0.719482400000   
H      0.648925800000     0.562568700000     0.697982800000   
H      0.640525800000     0.537712100000     0.697921800000   
H      0.636474600000     0.757431000000     0.482360800000   
H      0.649528500000     0.748382600000     0.503074600000   
H      0.639480600000     0.772583000000     0.503723100000   
H      0.593673700000     0.555725100000     0.483856200000   
H      0.583679200000     0.557724000000     0.507972700000   
H      0.595420800000     0.535507200000     0.500679000000   
H      0.518333400000     0.677078200000     0.720230100000   
H      0.517837500000     0.687210100000     0.696029700000   
H      0.497131300000     0.674118000000     0.705032300000   
H      0.373512300000     0.756477400000     0.628013600000   
H      0.397514300000     0.746276900000     0.630622900000   
H      0.390716600000     0.757934600000     0.608223000000   
H      0.470779400000     0.647422800000     0.579765300000   
H      0.458816500000     0.626823400000     0.569175700000   
H      0.467567400000     0.625473000000     0.593864400000   
H      0.372116100000     0.549118000000     0.580017100000   
H      0.392822300000     0.562210100000     0.571029700000   
H      0.393364000000     0.552116400000     0.595214800000   
H      0.264511100000     0.647575400000     0.628723100000   
H      0.274559000000     0.623321500000     0.628074600000   
H      0.261405900000     0.632415800000     0.607414200000   
H      0.359916700000     0.632270800000     0.706138600000   
H      0.339271500000     0.621765100000     0.694084200000   
H      0.337966900000     0.646423300000     0.702987700000   
H      0.372924800000     0.678115800000     0.705680800000   
H      0.395172100000     0.685371400000     0.693985000000   
H      0.393028300000     0.661270100000     0.703926100000   
H      0.375114400000     0.625267000000     0.500824000000   
H      0.399971000000     0.625366200000     0.509124800000   
H      0.389923100000     0.646820100000     0.498176600000   
H      0.359916700000     0.681015000000     0.499717700000   
H      0.335723900000     0.680519100000     0.509811400000   
H      0.344718900000     0.659767200000     0.496719400000   
H      0.262901300000     0.677619900000     0.594467200000   
H      0.273864700000     0.687568700000     0.572921800000   
H      0.265510600000     0.662712100000     0.572921800000   
H      0.344528200000     0.758476300000     0.595115700000   
H      0.334022500000     0.746482800000     0.574424700000   
H      0.358665500000     0.755325300000     0.573173500000   
H      0.468673700000     0.680664100000     0.608810400000   
H      0.458663900000     0.682769800000     0.632919300000   
H      0.470420800000     0.660568200000     0.625717200000   
H      0.337669400000     0.553161600000     0.610313400000   
H      0.337669400000     0.561523400000     0.635223400000   
H      0.359169000000     0.550621000000     0.625267000000   
H      0.484169000000     0.675621000000     0.500267000000   
H      0.462623600000     0.686523400000     0.510223400000   
H      0.462669400000     0.678161600000     0.485359200000   
H      0.248451200000     0.631561300000     0.502914400000   
H      0.272369400000     0.621276900000     0.505828900000   
H      0.265861500000     0.632812500000     0.483253500000   
H      0.345779400000     0.772483800000     0.704826400000   
H      0.333816500000     0.751823400000     0.694229100000   
H      0.342613200000     0.750526400000     0.718925500000   
H      0.483726500000     0.630371100000     0.698234600000   
H      0.459060700000     0.621467600000     0.699424700000   
H      0.469467200000     0.633476300000     0.720130900000   
H      0.484870900000     0.757286100000     0.581123400000   
H      0.464271500000     0.746734600000     0.569068900000   
H      0.462921100000     0.771377600000     0.577972400000   
H      0.247909500000     0.553115800000     0.580665600000   
H      0.270111100000     0.560417200000     0.568924000000   
H      0.268051100000     0.536254900000     0.578910800000   
H      0.250061000000     0.750282300000     0.625824000000   
H      0.274955700000     0.750381500000     0.634170500000   
H      0.264907800000     0.771835300000     0.623176600000   
H      0.484916700000     0.556015000000     0.624717700000   
H      0.460723900000     0.555519100000     0.634811400000   
H      0.469718900000     0.534759500000     0.621719400000   
H      0.387916600000     0.552619900000     0.719482400000   
H      0.398925800000     0.562568700000     0.697982800000   
H      0.390525800000     0.537712100000     0.697921800000   
H      0.386474600000     0.757431000000     0.482360800000   
H      0.399513200000     0.748382600000     0.503074600000   
H      0.389465300000     0.772583000000     0.503723100000   
H      0.343673700000     0.555725100000     0.483856200000   
H      0.333663900000     0.557724000000     0.507972700000   
H      0.345420800000     0.535507200000     0.500679000000   
H      0.268302900000     0.677078200000     0.720230100000   
H      0.267807000000     0.687210100000     0.696029700000   
H      0.247116100000     0.674118000000     0.705032300000   
H      0.623527500000     0.506462100000     0.628013600000   
H      0.647529600000     0.496261600000     0.630622900000   
H      0.640731800000     0.507919300000     0.608223000000   
H      0.720794700000     0.397407500000     0.579765300000   
H      0.708847000000     0.376792900000     0.569175700000   
H      0.717582700000     0.375457800000     0.593864400000   
H      0.622131300000     0.299102800000     0.580017100000   
H      0.642837500000     0.312194800000     0.571029700000   
H      0.643379200000     0.302101100000     0.595214800000   
H      0.514526400000     0.397560100000     0.628723100000   
H      0.524574300000     0.373291000000     0.628074600000   
H      0.511436500000     0.382415800000     0.607414200000   
H      0.609931900000     0.382255600000     0.706138600000   
H      0.589271500000     0.371749900000     0.694084200000   
H      0.587974500000     0.396408100000     0.702987700000   
H      0.622924800000     0.428108200000     0.705680800000   
H      0.645172100000     0.435356100000     0.693985000000   
H      0.643028300000     0.411254900000     0.703926100000   
H      0.625129700000     0.375251800000     0.500824000000   
H      0.649986300000     0.375351000000     0.509124800000   
H      0.639938400000     0.396804800000     0.498176600000   
H      0.609931900000     0.430999800000     0.499717700000   
H      0.585723900000     0.430503800000     0.509811400000   
H      0.594734200000     0.409759500000     0.496719400000   
H      0.512931800000     0.427604700000     0.594467200000   
H      0.523880000000     0.437568700000     0.572921800000   
H      0.515525800000     0.412712100000     0.572921800000   
H      0.594528200000     0.508461000000     0.595115700000   
H      0.584037800000     0.496452300000     0.574424700000   
H      0.608680700000     0.505310100000     0.573173500000   
H      0.718689000000     0.430664100000     0.608810400000   
H      0.708694500000     0.432754500000     0.632919300000   
H      0.720436100000     0.410568200000     0.625717200000   
H      0.587684600000     0.303146400000     0.610313400000   
H      0.587684600000     0.311508200000     0.635223400000   
H      0.609184300000     0.300605800000     0.625267000000   
H      0.734199500000     0.425605800000     0.500267000000   
H      0.712638900000     0.436508200000     0.510223400000   
H      0.712684600000     0.428161600000     0.485359200000   
H      0.498481800000     0.381561300000     0.502914400000   
H      0.522384600000     0.371246300000     0.505828900000   
H      0.515876800000     0.382812500000     0.483253500000   
H      0.595779400000     0.522453300000     0.704826400000   
H      0.583831800000     0.501808200000     0.694229100000   
H      0.592628500000     0.500518800000     0.718925500000   
H      0.733741800000     0.380355800000     0.698234600000   
H      0.709091200000     0.371452300000     0.699424700000   
H      0.719497700000     0.383461000000     0.720130900000   
H      0.734886200000     0.507255600000     0.581123400000   
H      0.714286800000     0.496704100000     0.569068900000   
H      0.712936400000     0.521362300000     0.577972400000   
H      0.497924800000     0.303108200000     0.580665600000   
H      0.520126300000     0.310401900000     0.568924000000   
H      0.518081700000     0.286254900000     0.578910800000   
H      0.500076300000     0.500267000000     0.625824000000   
H      0.524986300000     0.500351000000     0.634170500000   
H      0.514938400000     0.521804800000     0.623176600000   
H      0.734947200000     0.305999800000     0.624717700000   
H      0.710739100000     0.305503800000     0.634811400000   
H      0.719749500000     0.284759500000     0.621719400000   
H      0.637931800000     0.302604700000     0.719482400000   
H      0.648925800000     0.312553400000     0.697982800000   
H      0.640525800000     0.287696800000     0.697921800000   
H      0.636474600000     0.507415800000     0.482360800000   
H      0.649528500000     0.498367300000     0.503074600000   
H      0.639480600000     0.522560100000     0.503723100000   
H      0.593673700000     0.305694600000     0.483856200000   
H      0.583679200000     0.307693500000     0.507972700000   
H      0.595420800000     0.285507200000     0.500679000000   
H      0.518333400000     0.427063000000     0.720230100000   
H      0.517837500000     0.437210100000     0.696029700000   
H      0.497131300000     0.424118000000     0.705032300000   
H      0.373512300000     0.506462100000     0.628013600000   
H      0.397514300000     0.496261600000     0.630622900000   
H      0.390716600000     0.507919300000     0.608223000000   
H      0.470779400000     0.397407500000     0.579765300000   
H      0.458816500000     0.376792900000     0.569175700000   
H      0.467567400000     0.375457800000     0.593864400000   
H      0.372116100000     0.299102800000     0.580017100000   
H      0.392822300000     0.312194800000     0.571029700000   
H      0.393364000000     0.302101100000     0.595214800000   
H      0.264511100000     0.397560100000     0.628723100000   
H      0.274559000000     0.373291000000     0.628074600000   
H      0.261405900000     0.382415800000     0.607414200000   
H      0.359916700000     0.382255600000     0.706138600000   
H      0.339271500000     0.371749900000     0.694084200000   
H      0.337966900000     0.396408100000     0.702987700000   
H      0.372924800000     0.428108200000     0.705680800000   
H      0.395172100000     0.435356100000     0.693985000000   
H      0.393028300000     0.411254900000     0.703926100000   
H      0.375114400000     0.375251800000     0.500824000000   
H      0.399971000000     0.375351000000     0.509124800000   
H      0.389923100000     0.396804800000     0.498176600000   
H      0.359916700000     0.430999800000     0.499717700000   
H      0.335723900000     0.430503800000     0.509811400000   
H      0.344718900000     0.409759500000     0.496719400000   
H      0.262901300000     0.427604700000     0.594467200000   
H      0.273864700000     0.437568700000     0.572921800000   
H      0.265510600000     0.412712100000     0.572921800000   
H      0.344528200000     0.508461000000     0.595115700000   
H      0.334022500000     0.496452300000     0.574424700000   
H      0.358665500000     0.505310100000     0.573173500000   
H      0.468673700000     0.430664100000     0.608810400000   
H      0.458663900000     0.432754500000     0.632919300000   
H      0.470420800000     0.410568200000     0.625717200000   
H      0.337669400000     0.303146400000     0.610313400000   
H      0.337669400000     0.311508200000     0.635223400000   
H      0.359169000000     0.300605800000     0.625267000000   
H      0.484169000000     0.425605800000     0.500267000000   
H      0.462623600000     0.436508200000     0.510223400000   
H      0.462669400000     0.428161600000     0.485359200000   
H      0.248451200000     0.381561300000     0.502914400000   
H      0.272369400000     0.371246300000     0.505828900000   
H      0.265861500000     0.382812500000     0.483253500000   
H      0.345779400000     0.522453300000     0.704826400000   
H      0.333816500000     0.501808200000     0.694229100000   
H      0.342613200000     0.500518800000     0.718925500000   
H      0.483726500000     0.380355800000     0.698234600000   
H      0.459060700000     0.371452300000     0.699424700000   
H      0.469467200000     0.383461000000     0.720130900000   
H      0.484870900000     0.507255600000     0.581123400000   
H      0.464271500000     0.496704100000     0.569068900000   
H      0.462921100000     0.521362300000     0.577972400000   
H      0.247909500000     0.303108200000     0.580665600000   
H      0.270111100000     0.310401900000     0.568924000000   
H      0.268051100000     0.286254900000     0.578910800000   
H      0.250061000000     0.500267000000     0.625824000000   
H      0.274955700000     0.500351000000     0.634170500000   
H      0.264907800000     0.521804800000     0.623176600000   
H      0.484916700000     0.305999800000     0.624717700000   
H      0.460723900000     0.305503800000     0.634811400000   
H      0.469718900000     0.284759500000     0.621719400000   
H      0.387916600000     0.302604700000     0.719482400000   
H      0.398925800000     0.312553400000     0.697982800000   
H      0.390525800000     0.287696800000     0.697921800000   
H      0.386474600000     0.507415800000     0.482360800000   
H      0.399513200000     0.498367300000     0.503074600000   
H      0.389465300000     0.522560100000     0.503723100000   
H      0.343673700000     0.305694600000     0.483856200000   
H      0.333663900000     0.307693500000     0.507972700000   
H      0.345420800000     0.285507200000     0.500679000000   
H      0.268302900000     0.427063000000     0.720230100000   
H      0.267807000000     0.437210100000     0.696029700000   
H      0.247116100000     0.424118000000     0.705032300000   
H      0.623527500000     0.756477400000     0.378013600000   
H      0.647529600000     0.746276900000     0.380607600000   
H      0.640731800000     0.757934600000     0.358207700000   
H      0.720794700000     0.647422800000     0.329750100000   
H      0.708847000000     0.626823400000     0.319145200000   
H      0.717582700000     0.625473000000     0.343864400000   
H      0.622131300000     0.549118000000     0.330001800000   
H      0.642837500000     0.562210100000     0.320999100000   
H      0.643379200000     0.552116400000     0.345199600000   
H      0.514526400000     0.647575400000     0.378707900000   
H      0.524574300000     0.623321500000     0.378059400000   
H      0.511436500000     0.632415800000     0.357414200000   
H      0.609931900000     0.632270800000     0.456108100000   
H      0.589271500000     0.621765100000     0.444053600000   
H      0.587974500000     0.646423300000     0.452957200000   
H      0.622924800000     0.678115800000     0.455665600000   
H      0.645172100000     0.685371400000     0.443969700000   
H      0.643028300000     0.661270100000     0.453910800000   
H      0.625129700000     0.625267000000     0.250793500000   