# created by cif2lammps
units     metal
boundary  p p p
dimension 3
newton    on
#
atom_style       full
bond_style       harmonic
angle_style      charmm
dihedral_style   hybrid charmm
improper_style   hybrid cvff 
#
pair_style    hybrid/overlay lj/cut 13.0 coul/long 13.0 morse 13.0
kspace_style  ewald 1e-8
pair_modify   table 0
#
read_data p1_fromPDFFile.data
include   pair.lmp
# scaling 1-4 bonds
special_bonds   lj 0.0 0.0 0.5 coul 0.0 0.0 0.6874
# Setup neighbor style
neighbor 2.0 bin
neigh_modify once no every 1 delay 0 check yes
# Setup output
thermo 1
thermo_style custom step pe press pxx pyy pzz pxy pxz pyz cella cellb cellc cellalpha cellbeta cellgamma vol
thermo_modify norm no flush yes
# Groups:
ndx2group index.ndx
thermo 1
#minimize 1e-2 1e-2 1000 1000
#write_data optimised.data
# Rigid molecule (solvent)
fix SHAKE all shake 0.0001 20 0 b 1 2 a 1 t 1 2 3
#
variable dt         equal 0.0005
variable TK         equal 400.000 
variable Pbar       equal 1.0
variable tdamp      equal 100*${dt}
variable pdamp      equal 1000*${dt}
variable RandomSeed equal 7865724
variable nprint     equal 100
variable ndump      equal 2*${nprint}
#
velocity      all create 100.0 ${RandomSeed} 
thermo_style  custom step time etotal ke pe evdwl ecoul elong temp press vol
thermo_modify flush yes
thermo   ${nprint}
# very short equilibration with 0.000005 ps timestep
timestep 0.000005
reset_timestep 0
dump         TRAJ all xtc ${ndump} Equilibration.xtc
dump_modify  TRAJ precision 10000 sfactor 0.1
fix 2 all npt temp 200.0 300.0 ${tdamp} iso ${Pbar} ${Pbar} ${pdamp} mtk yes
fix 4 all recenter 0.0 0.0 0.0 units box
run 1000
unfix 2
unfix 4
undump TRAJ
# very short equilibration with 0.0005 ps timestep
timestep ${dt}
fix 2 all nvt temp ${TK} ${TK} ${tdamp} mtk yes
fix 4 all recenter 0.0 0.0 0.0 units box
run 1000
unfix 2
unfix 4
# Production
dump TRAJ all xtc ${ndump} MDNPT.xtc
dump_modify  TRAJ precision 10000 sfactor 0.1
fix 1 all plumed plumedfile plumed.txt outfile plumed.log
fix 2 all npt temp 300.0 ${TK} ${tdamp} iso ${Pbar} ${Pbar} ${pdamp}
fix 4 all recenter 0.0 0.0 0.0 units box
run 10000
unfix 4
unfix 2
fix 2 all npt temp ${TK} ${TK} ${tdamp} iso ${Pbar} ${Pbar} ${pdamp}
fix 4 all recenter 0.0 0.0 0.0 units box
run 1000000
unfix 4
unfix 2
unfix 1
undump TRAJ
#
# last step:
fix 2 all nvt temp ${TK} ${TK} ${tdamp}
fix 4 all recenter 0.0 0.0 0.0 units box
dump TRAJ all custom 1 last_step.lammpstrj element xs ys zs
dump_modify TRAJ element S O C Zn He  H  C  H  N  C  C Ne sort id pbc yes
run 0
unfix 4
unfix 2
undump      TRAJ
unfix  SHAKE
write_data last.data
write_restart restart.MDNVT
