# created by cif2lammps

units     metal
boundary  p p p
dimension 3
newton    on
#
atom_style       full
bond_style       harmonic
angle_style      charmm
dihedral_style   charmm
improper_style   cvff
#
special_bonds lj 0.0 0.0 0.5 coul 0.0 0.0 0.6874
pair_style    hybrid/overlay lj/cut 13.0 coul/long 13.0 morse 13.0
# forcefield
read_data p1_fromPDBFile.data
include   forcefield.lmp
# Setup neighbor style
neighbor 2.0 bin
neigh_modify once no every 1 delay 0 check yes
#
thermo 1
minimize 1e-3 1e-3 10000 10000
#
variable dt         equal 0.0005
variable TK         equal 298.0
variable Pbar       equal 1.0
variable tdamp      equal 100*${dt}
variable pdamp      equal 1000*${dt}
variable RandomSeed equal 123456789
variable nprint     equal 100
variable ndump      equal ${nprint}
# groups for RDF
group Nitrogen type 6
group Zinc     type 1
group Carbon   type 4 8 7 
group ZIF      type 1 3 4 5 6 7 8
#
velocity      all create ${TK} ${RandomSeed} 
thermo_style  custom step time etotal ke pe evdwl ecoul elong temp press vol
thermo_modify flush yes
thermo   ${nprint}
timestep ${dt}
reset_timestep 0
dump        xtc_file all xtc ${ndump} MDNVT.xtc
#fix 1 all plumed  plumedfile plumed.txt outfile plumed.log
#fix 5 all colvars colvars.txt output colvars.log
fix 2 all nvt temp ${TK} ${TK} ${tdamp} mtk yes
fix 4 all recenter INIT INIT INIT
run 200000
unfix 4
unfix 2
undump      xtc_file
#
print 'ending'
